[14/08/2014 - 16:08:46] [/home/justin/public_html/myFramework/mvc/libs/Model.php on line:22 ] [IP: 127.0.0.1] Message: SELECT * FROM users
[14/08/2014 - 16:08:46] [/home/justin/public_html/myFramework/mvc/libs/Model.php on line:22 ] [IP: 127.0.0.1] Message: SELECT * FROM users
[14/08/2014 - 16:08:46] [/home/justin/public_html/myFramework/mvc/libs/Model.php on line:22 ] [IP: 127.0.0.1] Message: SELECT * FROM users
[14/08/2014 - 16:09:32] [/home/justin/public_html/myFramework/mvc/libs/Model.php on line:22 ] [IP: 127.0.0.1] Message: SELECT * FROM users
[14/08/2014 - 16:09:32] [/home/justin/public_html/myFramework/mvc/libs/Model.php on line:22 ] [IP: 127.0.0.1] Message: SELECT * FROM users
[14/08/2014 - 16:09:32] [/home/justin/public_html/myFramework/mvc/libs/Model.php on line:22 ] [IP: 127.0.0.1] Message: SELECT * FROM users
[14/08/2014 - 16:10:35] [/home/justin/public_html/myFramework/mvc/libs/Model.php on line:22 ] [IP: 127.0.0.1] Message: SELECT * FROM users
[14/08/2014 - 16:10:35] [/home/justin/public_html/myFramework/mvc/libs/Model.php on line:22 ] [IP: 127.0.0.1] Message: SELECT * FROM users
[14/08/2014 - 16:10:35] [/home/justin/public_html/myFramework/mvc/libs/Model.php on line:22 ] [IP: 127.0.0.1] Message: SELECT * FROM users
[14/08/2014 - 16:10:45] [/home/justin/public_html/myFramework/mvc/libs/Model.php on line:14 ] [IP: 127.0.0.1] Message: SELECT * FROM users WHERE id=1 LIMIT 1
[14/08/2014 - 16:10:45] [/home/justin/public_html/myFramework/mvc/libs/Model.php on line:14 ] [IP: 127.0.0.1] Message: SELECT * FROM users WHERE id=1 LIMIT 1
[14/08/2014 - 16:10:45] [/home/justin/public_html/myFramework/mvc/libs/Model.php on line:14 ] [IP: 127.0.0.1] Message: SELECT * FROM users WHERE id=1 LIMIT 1
[14/08/2014 - 16:13:21] [/home/justin/public_html/myFramework/mvc/libs/Model.php on line:18 ] [IP: 127.0.0.1] Message: SELECT * FROM users WHERE id=1 LIMIT 1
[14/08/2014 - 16:13:21] [/home/justin/public_html/myFramework/mvc/libs/Model.php on line:18 ] [IP: 127.0.0.1] Message: SELECT * FROM users WHERE id=1 LIMIT 1
[14/08/2014 - 16:13:21] [/home/justin/public_html/myFramework/mvc/libs/Model.php on line:18 ] [IP: 127.0.0.1] Message: SELECT * FROM users WHERE id=1 LIMIT 1
[14/08/2014 - 16:13:41] [/home/justin/public_html/myFramework/mvc/libs/Model.php on line:18 ] [IP: 127.0.0.1] Message: SELECT * FROM users WHERE id=1 LIMIT 1
[14/08/2014 - 16:13:41] [/home/justin/public_html/myFramework/mvc/libs/Model.php on line:18 ] [IP: 127.0.0.1] Message: SELECT * FROM users WHERE id=1 LIMIT 1
[14/08/2014 - 16:13:41] [/home/justin/public_html/myFramework/mvc/libs/Model.php on line:18 ] [IP: 127.0.0.1] Message: SELECT * FROM users WHERE id=1 LIMIT 1
[14/08/2014 - 16:15:42] [/home/justin/public_html/myFramework/mvc/libs/Model.php on line:18 ] [IP: 127.0.0.1] Message: SELECT * FROM users WHERE id=1 LIMIT 1
[14/08/2014 - 16:15:42] [/home/justin/public_html/myFramework/mvc/libs/Model.php on line:18 ] [IP: 127.0.0.1] Message: SELECT * FROM users WHERE id=1 LIMIT 1
[14/08/2014 - 16:15:42] [/home/justin/public_html/myFramework/mvc/libs/Model.php on line:18 ] [IP: 127.0.0.1] Message: SELECT * FROM users WHERE id=1 LIMIT 1
[14/08/2014 - 16:16:07] [/home/justin/public_html/myFramework/mvc/libs/Model.php on line:18 ] [IP: 127.0.0.1] Message: SELECT * FROM users WHERE id=1 LIMIT 1
[14/08/2014 - 16:16:07] [/home/justin/public_html/myFramework/mvc/libs/Model.php on line:18 ] [IP: 127.0.0.1] Message: SELECT * FROM users WHERE id=1 LIMIT 1
[14/08/2014 - 16:16:08] [/home/justin/public_html/myFramework/mvc/libs/Model.php on line:18 ] [IP: 127.0.0.1] Message: SELECT * FROM users WHERE id=1 LIMIT 1
[14/08/2014 - 16:16:10] [/home/justin/public_html/myFramework/mvc/libs/Model.php on line:18 ] [IP: 127.0.0.1] Message: SELECT * FROM users WHERE id=1 LIMIT 1
[14/08/2014 - 16:17:53] [/home/justin/public_html/myFramework/mvc/libs/Model.php on line:18 ] [IP: 127.0.0.1] Message: SELECT * FROM users WHERE id=1 LIMIT 1
[14/08/2014 - 16:17:53] [/home/justin/public_html/myFramework/mvc/libs/Model.php on line:18 ] [IP: 127.0.0.1] Message: SELECT * FROM users WHERE id=1 LIMIT 1
[14/08/2014 - 16:17:53] [/home/justin/public_html/myFramework/mvc/libs/Model.php on line:18 ] [IP: 127.0.0.1] Message: SELECT * FROM users WHERE id=1 LIMIT 1
[14/08/2014 - 16:18:00] [/home/justin/public_html/myFramework/mvc/libs/Model.php on line:18 ] [IP: 127.0.0.1] Message: SELECT * FROM users WHERE id=1 LIMIT 1
[14/08/2014 - 16:18:00] [/home/justin/public_html/myFramework/mvc/libs/Model.php on line:18 ] [IP: 127.0.0.1] Message: SELECT * FROM users WHERE id=1 LIMIT 1
[14/08/2014 - 16:18:00] [/home/justin/public_html/myFramework/mvc/libs/Model.php on line:18 ] [IP: 127.0.0.1] Message: SELECT * FROM users WHERE id=1 LIMIT 1
[14/08/2014 - 16:18:07] [/home/justin/public_html/myFramework/mvc/libs/Model.php on line:18 ] [IP: 127.0.0.1] Message: SELECT * FROM users WHERE id=1 LIMIT 1
[14/08/2014 - 16:18:07] [/home/justin/public_html/myFramework/mvc/libs/Model.php on line:18 ] [IP: 127.0.0.1] Message: SELECT * FROM users WHERE id=1 LIMIT 1
[14/08/2014 - 16:18:07] [/home/justin/public_html/myFramework/mvc/libs/Model.php on line:18 ] [IP: 127.0.0.1] Message: SELECT * FROM users WHERE id=1 LIMIT 1
[14/08/2014 - 16:24:36] [/home/justin/public_html/myFramework/mvc/libs/Model.php on line:18 ] [IP: 127.0.0.1] Message: SELECT * FROM users WHERE id=1 LIMIT 1
[14/08/2014 - 16:24:37] [/home/justin/public_html/myFramework/mvc/libs/Model.php on line:18 ] [IP: 127.0.0.1] Message: SELECT * FROM users WHERE id=1 LIMIT 1
[14/08/2014 - 16:24:37] [/home/justin/public_html/myFramework/mvc/libs/Model.php on line:18 ] [IP: 127.0.0.1] Message: SELECT * FROM users WHERE id=1 LIMIT 1
[14/08/2014 - 16:25:05] [/home/justin/public_html/myFramework/mvc/libs/Model.php on line:18 ] [IP: 127.0.0.1] Message: SELECT * FROM users WHERE id=1 LIMIT 1
[14/08/2014 - 16:25:06] [/home/justin/public_html/myFramework/mvc/libs/Model.php on line:18 ] [IP: 127.0.0.1] Message: SELECT * FROM users WHERE id=1 LIMIT 1
[14/08/2014 - 16:25:06] [/home/justin/public_html/myFramework/mvc/libs/Model.php on line:18 ] [IP: 127.0.0.1] Message: SELECT * FROM users WHERE id=1 LIMIT 1
[14/08/2014 - 16:28:50] [/home/justin/public_html/myFramework/mvc/libs/Model.php on line:14 ] [IP: 127.0.0.1] Message: SELECT * FROM users WHERE id=1 LIMIT 1
[14/08/2014 - 16:28:51] [/home/justin/public_html/myFramework/mvc/libs/Model.php on line:14 ] [IP: 127.0.0.1] Message: SELECT * FROM users WHERE id=1 LIMIT 1
[14/08/2014 - 16:28:51] [/home/justin/public_html/myFramework/mvc/libs/Model.php on line:14 ] [IP: 127.0.0.1] Message: SELECT * FROM users WHERE id=1 LIMIT 1
[14/08/2014 - 16:28:59] [/home/justin/public_html/myFramework/mvc/libs/Model.php on line:14 ] [IP: 127.0.0.1] Message: SELECT * FROM users WHERE id=1 LIMIT 1
[14/08/2014 - 16:29:00] [/home/justin/public_html/myFramework/mvc/libs/Model.php on line:14 ] [IP: 127.0.0.1] Message: SELECT * FROM users WHERE id=1 LIMIT 1
[14/08/2014 - 16:29:00] [/home/justin/public_html/myFramework/mvc/libs/Model.php on line:14 ] [IP: 127.0.0.1] Message: SELECT * FROM users WHERE id=1 LIMIT 1
[14/08/2014 - 16:29:27] [/home/justin/public_html/myFramework/mvc/libs/Model.php on line:14 ] [IP: 127.0.0.1] Message: SELECT * FROM users WHERE id=1 LIMIT 1
[14/08/2014 - 16:29:27] [/home/justin/public_html/myFramework/mvc/libs/Model.php on line:14 ] [IP: 127.0.0.1] Message: SELECT * FROM users WHERE id=1 LIMIT 1
[14/08/2014 - 16:29:27] [/home/justin/public_html/myFramework/mvc/libs/Model.php on line:14 ] [IP: 127.0.0.1] Message: SELECT * FROM users WHERE id=1 LIMIT 1
[14/08/2014 - 16:39:41] [/home/justin/public_html/myFramework/mvc/libs/Model.php on line:14 ] [IP: 127.0.0.1] Message: SELECT * FROM users WHERE id=1 LIMIT 1
[14/08/2014 - 16:39:41] [/home/justin/public_html/myFramework/mvc/libs/Model.php on line:14 ] [IP: 127.0.0.1] Message: SELECT * FROM users WHERE id=1 LIMIT 1
[14/08/2014 - 16:39:41] [/home/justin/public_html/myFramework/mvc/libs/Model.php on line:14 ] [IP: 127.0.0.1] Message: SELECT * FROM users WHERE id=1 LIMIT 1
[14/08/2014 - 16:39:44] [/home/justin/public_html/myFramework/mvc/libs/Model.php on line:14 ] [IP: 127.0.0.1] Message: SELECT * FROM users WHERE id=1 LIMIT 1
[14/08/2014 - 16:39:44] [/home/justin/public_html/myFramework/mvc/libs/Model.php on line:14 ] [IP: 127.0.0.1] Message: SELECT * FROM users WHERE id=1 LIMIT 1
[14/08/2014 - 16:39:44] [/home/justin/public_html/myFramework/mvc/libs/Model.php on line:14 ] [IP: 127.0.0.1] Message: SELECT * FROM users WHERE id=1 LIMIT 1
[14/08/2014 - 16:40:03] [/home/justin/public_html/myFramework/mvc/libs/Model.php on line:14 ] [IP: 127.0.0.1] Message: SELECT * FROM users WHERE id=1 LIMIT 1
[14/08/2014 - 16:40:04] [/home/justin/public_html/myFramework/mvc/libs/Model.php on line:14 ] [IP: 127.0.0.1] Message: SELECT * FROM users WHERE id=1 LIMIT 1
[14/08/2014 - 16:40:04] [/home/justin/public_html/myFramework/mvc/libs/Model.php on line:14 ] [IP: 127.0.0.1] Message: SELECT * FROM users WHERE id=1 LIMIT 1
[14/08/2014 - 16:45:56] [/home/justin/public_html/myFramework/mvc/libs/Model.php on line:14 ] [IP: 127.0.0.1] Message: SELECT * FROM users WHERE id=1 LIMIT 1
[14/08/2014 - 16:45:56] [/home/justin/public_html/myFramework/mvc/libs/Model.php on line:14 ] [IP: 127.0.0.1] Message: SELECT * FROM users WHERE id=1 LIMIT 1
[14/08/2014 - 16:46:59] [/home/justin/public_html/myFramework/mvc/libs/Model.php on line:14 ] [IP: 127.0.0.1] Message: SELECT * FROM users WHERE id=1 LIMIT 1
[14/08/2014 - 16:46:59] [/home/justin/public_html/myFramework/mvc/libs/Model.php on line:14 ] [IP: 127.0.0.1] Message: SELECT * FROM users WHERE id=1 LIMIT 1
[14/08/2014 - 16:47:30] [/home/justin/public_html/myFramework/mvc/libs/Model.php on line:14 ] [IP: 127.0.0.1] Message: SELECT * FROM users WHERE id=1 LIMIT 1
[14/08/2014 - 16:47:30] [/home/justin/public_html/myFramework/mvc/libs/Model.php on line:14 ] [IP: 127.0.0.1] Message: SELECT * FROM users WHERE id=1 LIMIT 1
[14/08/2014 - 16:48:33] [/home/justin/public_html/myFramework/mvc/libs/Model.php on line:14 ] [IP: 127.0.0.1] Message: SELECT * FROM users WHERE id=1 LIMIT 1
[14/08/2014 - 16:48:33] [/home/justin/public_html/myFramework/mvc/libs/Model.php on line:14 ] [IP: 127.0.0.1] Message: SELECT * FROM users WHERE id=1 LIMIT 1
[14/08/2014 - 16:52:19] [/home/justin/public_html/myFramework/mvc/libs/Model.php on line:14 ] [IP: 127.0.0.1] Message: SELECT * FROM users WHERE id=1 LIMIT 1
[14/08/2014 - 16:52:31] [/home/justin/public_html/myFramework/mvc/libs/Model.php on line:14 ] [IP: 127.0.0.1] Message: SELECT * FROM users WHERE id=1 LIMIT 1
[14/08/2014 - 16:53:27] [/home/justin/public_html/myFramework/mvc/libs/Model.php on line:14 ] [IP: 127.0.0.1] Message: SELECT * FROM users WHERE id=1 LIMIT 1
[14/08/2014 - 17:06:37] [/home/justin/public_html/myFramework/mvc/libs/Model.php on line:14 ] [IP: 127.0.0.1] Message: SELECT * FROM users WHERE id=1 LIMIT 1
[14/08/2014 - 17:16:19] [/home/justin/public_html/myFramework/mvc/libs/Model.php on line:18 ] [IP: 127.0.0.1] Message: SELECT * FROM users
[14/08/2014 - 17:17:21] [/home/justin/public_html/myFramework/mvc/libs/Model.php on line:18 ] [IP: 127.0.0.1] Message: SELECT * FROM users
[14/08/2014 - 17:19:14] [/home/justin/public_html/myFramework/mvc/libs/Model.php on line:18 ] [IP: 127.0.0.1] Message: SELECT * FROM users
[14/08/2014 - 17:29:26] [/home/justin/public_html/myFramework/mvc/libs/Model.php on line:18 ] [IP: 127.0.0.1] Message: SELECT * FROM users
[14/08/2014 - 17:29:28] [/home/justin/public_html/myFramework/mvc/libs/Model.php on line:18 ] [IP: 127.0.0.1] Message: SELECT * FROM users
[14/08/2014 - 17:30:55] [/home/justin/public_html/myFramework/mvc/libs/Model.php on line:18 ] [IP: 127.0.0.1] Message: SELECT * FROM users
[14/08/2014 - 17:31:28] [/home/justin/public_html/myFramework/mvc/libs/Model.php on line:18 ] [IP: 127.0.0.1] Message: SELECT * FROM users
[14/08/2014 - 17:33:31] [/home/justin/public_html/myFramework/mvc/libs/Model.php on line:18 ] [IP: 127.0.0.1] Message: SELECT * FROM users
[14/08/2014 - 17:33:40] [/home/justin/public_html/myFramework/mvc/libs/Model.php on line:18 ] [IP: 127.0.0.1] Message: SELECT * FROM users
[14/08/2014 - 17:34:42] [/home/justin/public_html/myFramework/mvc/libs/Model.php on line:18 ] [IP: 127.0.0.1] Message: SELECT * FROM users
[14/08/2014 - 17:35:00] [/home/justin/public_html/myFramework/mvc/libs/Model.php on line:18 ] [IP: 127.0.0.1] Message: SELECT * FROM users
[14/08/2014 - 17:35:06] [/home/justin/public_html/myFramework/mvc/libs/Model.php on line:18 ] [IP: 127.0.0.1] Message: SELECT * FROM users
[14/08/2014 - 17:35:34] [/home/justin/public_html/myFramework/mvc/libs/Model.php on line:18 ] [IP: 127.0.0.1] Message: SELECT * FROM users
[14/08/2014 - 17:36:33] [/home/justin/public_html/myFramework/mvc/libs/Model.php on line:18 ] [IP: 127.0.0.1] Message: SELECT * FROM users
[14/08/2014 - 17:36:47] [/home/justin/public_html/myFramework/mvc/libs/Model.php on line:18 ] [IP: 127.0.0.1] Message: SELECT * FROM users
[14/08/2014 - 17:39:07] [/home/justin/public_html/myFramework/mvc/libs/Model.php on line:18 ] [IP: 127.0.0.1] Message: SELECT * FROM users
[22/08/2014 - 10:33:35] [/home/justin/public_html/myFramework/mvc/libs/Model.php on line:18 ] [IP: 127.0.0.1] Message: SELECT * FROM users
[22/08/2014 - 10:33:47] [/home/justin/public_html/myFramework/mvc/libs/Model.php on line:18 ] [IP: 127.0.0.1] Message: SELECT * FROM users
[22/08/2014 - 10:35:38] [/home/justin/public_html/myFramework/mvc/libs/Model.php on line:18 ] [IP: 127.0.0.1] Message: SELECT * FROM users
[22/08/2014 - 10:47:51] [/home/justin/public_html/myFramework/mvc/libs/Model.php on line:18 ] [IP: 127.0.0.1] Message: SELECT * FROM users
[22/08/2014 - 10:49:53] [/home/justin/public_html/myFramework/mvc/libs/Model.php on line:18 ] [IP: 127.0.0.1] Message: SELECT * FROM users
[22/08/2014 - 10:54:43] [/home/justin/public_html/myFramework/mvc/libs/Model.php on line:18 ] [IP: 127.0.0.1] Message: SELECT * FROM users
[22/08/2014 - 10:55:55] [/home/justin/public_html/myFramework/mvc/libs/Model.php on line:18 ] [IP: 127.0.0.1] Message: SELECT * FROM users
[22/08/2014 - 11:06:44] [/home/justin/public_html/myFramework/mvc/libs/Model.php on line:18 ] [IP: 127.0.0.1] Message: SELECT * FROM users
[22/08/2014 - 11:46:46] [/home/justin/public_html/myFramework/mvc/libs/Model.php on line:18 ] [IP: 127.0.0.1] Message: SELECT * FROM users
[05/09/2014 - 8:47:16] [/home/justin/public_html/myFramework/mvc/libs/Model.php on line:18 ] [IP: 127.0.0.1] Message: SELECT * FROM users
[05/09/2014 - 8:55:11] [/home/justin/public_html/myFramework/mvc/app/controllers/AutoModuleController.php on line:20 ] [IP: 127.0.0.1] Message: SHOW FIELDS FROM products
[05/09/2014 - 8:55:21] [/home/justin/public_html/myFramework/mvc/app/controllers/AutoModuleController.php on line:20 ] [IP: 127.0.0.1] Message: SHOW FIELDS FROM products
[05/09/2014 - 8:55:51] [/home/justin/public_html/myFramework/mvc/app/controllers/AutoModuleController.php on line:20 ] [IP: 127.0.0.1] Message: SHOW FIELDS FROM products
[05/09/2014 - 8:55:53] [/home/justin/public_html/myFramework/mvc/app/controllers/AutoModuleController.php on line:20 ] [IP: 127.0.0.1] Message: SHOW FIELDS FROM products
[05/09/2014 - 9:23:41] [/home/justin/public_html/myFramework/mvc/app/controllers/AutoModuleController.php on line:20 ] [IP: 127.0.0.1] Message: SHOW FIELDS FROM products
[05/09/2014 - 9:24:42] [/home/justin/public_html/myFramework/mvc/app/controllers/AutoModuleController.php on line:20 ] [IP: 127.0.0.1] Message: SHOW FIELDS FROM products
[05/09/2014 - 9:27:09] [/home/justin/public_html/myFramework/mvc/app/controllers/AutoModuleController.php on line:20 ] [IP: 127.0.0.1] Message: SHOW FIELDS FROM products
[05/09/2014 - 9:37:00] [/home/justin/public_html/myFramework/mvc/app/controllers/AutoModuleController.php on line:20 ] [IP: 127.0.0.1] Message: SHOW FIELDS FROM products
[05/09/2014 - 9:37:11] [/home/justin/public_html/myFramework/mvc/app/controllers/AutoModuleController.php on line:20 ] [IP: 127.0.0.1] Message: SHOW FIELDS FROM products
[05/09/2014 - 9:37:14] [/home/justin/public_html/myFramework/mvc/app/controllers/AutoModuleController.php on line:20 ] [IP: 127.0.0.1] Message: SHOW FIELDS FROM products
[05/09/2014 - 9:38:40] [/home/justin/public_html/myFramework/mvc/app/controllers/AutoModuleController.php on line:20 ] [IP: 127.0.0.1] Message: SHOW FIELDS FROM products
[05/09/2014 - 9:38:43] [/home/justin/public_html/myFramework/mvc/app/controllers/AutoModuleController.php on line:20 ] [IP: 127.0.0.1] Message: SHOW FIELDS FROM products
[05/09/2014 - 9:51:43] [/home/justin/public_html/myFramework/mvc/app/controllers/AutoModuleController.php on line:20 ] [IP: 127.0.0.1] Message: SHOW FIELDS FROM products
[05/09/2014 - 10:14:07] [/home/justin/public_html/myFramework/mvc/app/controllers/AutoModuleController.php on line:20 ] [IP: 127.0.0.1] Message: SHOW FIELDS FROM products
[05/09/2014 - 10:14:30] [/home/justin/public_html/myFramework/mvc/app/controllers/AutoModuleController.php on line:20 ] [IP: 127.0.0.1] Message: SHOW FIELDS FROM products
[05/09/2014 - 10:14:53] [/home/justin/public_html/myFramework/mvc/app/controllers/AutoModuleController.php on line:20 ] [IP: 127.0.0.1] Message: SHOW FIELDS FROM products
[05/09/2014 - 10:15:38] [/home/justin/public_html/myFramework/mvc/app/controllers/AutoModuleController.php on line:20 ] [IP: 127.0.0.1] Message: SHOW FIELDS FROM products
[05/09/2014 - 10:16:14] [/home/justin/public_html/myFramework/mvc/app/controllers/AutoModuleController.php on line:20 ] [IP: 127.0.0.1] Message: SHOW FIELDS FROM products
[05/09/2014 - 10:16:37] [/home/justin/public_html/myFramework/mvc/app/controllers/AutoModuleController.php on line:20 ] [IP: 127.0.0.1] Message: SHOW FIELDS FROM products
[05/09/2014 - 10:17:23] [/home/justin/public_html/myFramework/mvc/app/controllers/AutoModuleController.php on line:20 ] [IP: 127.0.0.1] Message: SHOW FIELDS FROM products
[05/09/2014 - 10:17:49] [/home/justin/public_html/myFramework/mvc/app/controllers/AutoModuleController.php on line:20 ] [IP: 127.0.0.1] Message: SHOW FIELDS FROM products
[05/09/2014 - 10:17:59] [/home/justin/public_html/myFramework/mvc/app/controllers/AutoModuleController.php on line:20 ] [IP: 127.0.0.1] Message: SHOW FIELDS FROM products
[05/09/2014 - 10:18:16] [/home/justin/public_html/myFramework/mvc/app/controllers/AutoModuleController.php on line:20 ] [IP: 127.0.0.1] Message: SHOW FIELDS FROM products
[05/09/2014 - 10:18:29] [/home/justin/public_html/myFramework/mvc/app/controllers/AutoModuleController.php on line:20 ] [IP: 127.0.0.1] Message: SHOW FIELDS FROM products
[05/09/2014 - 10:18:53] [/home/justin/public_html/myFramework/mvc/app/controllers/AutoModuleController.php on line:20 ] [IP: 127.0.0.1] Message: SHOW FIELDS FROM products
[05/09/2014 - 10:19:31] [/home/justin/public_html/myFramework/mvc/app/controllers/AutoModuleController.php on line:20 ] [IP: 127.0.0.1] Message: SHOW FIELDS FROM products
[05/09/2014 - 10:20:11] [/home/justin/public_html/myFramework/mvc/app/controllers/AutoModuleController.php on line:20 ] [IP: 127.0.0.1] Message: SHOW FIELDS FROM products
[05/09/2014 - 10:20:32] [/home/justin/public_html/myFramework/mvc/app/controllers/AutoModuleController.php on line:20 ] [IP: 127.0.0.1] Message: SHOW FIELDS FROM products
[05/09/2014 - 10:20:45] [/home/justin/public_html/myFramework/mvc/app/controllers/AutoModuleController.php on line:20 ] [IP: 127.0.0.1] Message: SHOW FIELDS FROM products
[05/09/2014 - 10:21:46] [/home/justin/public_html/myFramework/mvc/app/controllers/AutoModuleController.php on line:20 ] [IP: 127.0.0.1] Message: SHOW FIELDS FROM products
[05/09/2014 - 10:21:57] [/home/justin/public_html/myFramework/mvc/app/controllers/AutoModuleController.php on line:20 ] [IP: 127.0.0.1] Message: SHOW FIELDS FROM products
[05/09/2014 - 10:28:50] [/home/justin/public_html/myFramework/mvc/app/controllers/AutoModuleController.php on line:20 ] [IP: 127.0.0.1] Message: SHOW FIELDS FROM products
[05/09/2014 - 10:29:49] [/home/justin/public_html/myFramework/mvc/app/controllers/AutoModuleController.php on line:20 ] [IP: 127.0.0.1] Message: SHOW FIELDS FROM products
[05/09/2014 - 10:30:17] [/home/justin/public_html/myFramework/mvc/app/controllers/AutoModuleController.php on line:20 ] [IP: 127.0.0.1] Message: SHOW FIELDS FROM products
[05/09/2014 - 10:30:31] [/home/justin/public_html/myFramework/mvc/app/controllers/AutoModuleController.php on line:20 ] [IP: 127.0.0.1] Message: SHOW FIELDS FROM products
[05/09/2014 - 10:31:00] [/home/justin/public_html/myFramework/mvc/app/controllers/AutoModuleController.php on line:20 ] [IP: 127.0.0.1] Message: SHOW FIELDS FROM products
[05/09/2014 - 10:32:31] [/home/justin/public_html/myFramework/mvc/app/controllers/AutoModuleController.php on line:20 ] [IP: 127.0.0.1] Message: SHOW FIELDS FROM products
[05/09/2014 - 10:33:12] [/home/justin/public_html/myFramework/mvc/app/controllers/AutoModuleController.php on line:20 ] [IP: 127.0.0.1] Message: SHOW FIELDS FROM products
[05/09/2014 - 10:37:44] [/home/justin/public_html/myFramework/mvc/app/controllers/AutoModuleController.php on line:20 ] [IP: 127.0.0.1] Message: SHOW FIELDS FROM products
[05/09/2014 - 10:39:07] [/home/justin/public_html/myFramework/mvc/app/controllers/AutoModuleController.php on line:20 ] [IP: 127.0.0.1] Message: SHOW FIELDS FROM products
[05/09/2014 - 10:59:26] [/home/justin/public_html/myFramework/mvc/app/controllers/AutoModuleController.php on line:20 ] [IP: 127.0.0.1] Message: SHOW FIELDS FROM products
[05/09/2014 - 11:07:25] [/home/justin/public_html/myFramework/mvc/app/controllers/AutoModuleController.php on line:20 ] [IP: 127.0.0.1] Message: SHOW FIELDS FROM products
[05/09/2014 - 11:17:54] [/home/justin/public_html/myFramework/mvc/app/controllers/AutoModuleController.php on line:20 ] [IP: 127.0.0.1] Message: SHOW FIELDS FROM products
[05/09/2014 - 11:20:03] [/home/justin/public_html/myFramework/mvc/app/controllers/AutoModuleController.php on line:20 ] [IP: 127.0.0.1] Message: SHOW FIELDS FROM products
[05/09/2014 - 11:21:02] [/home/justin/public_html/myFramework/mvc/app/controllers/AutoModuleController.php on line:20 ] [IP: 127.0.0.1] Message: SHOW FIELDS FROM products
[05/09/2014 - 11:21:06] [/home/justin/public_html/myFramework/mvc/app/controllers/AutoModuleController.php on line:20 ] [IP: 127.0.0.1] Message: SHOW FIELDS FROM products
[05/09/2014 - 11:23:18] [/home/justin/public_html/myFramework/mvc/app/controllers/AutoModuleController.php on line:20 ] [IP: 127.0.0.1] Message: SHOW FIELDS FROM products
[05/09/2014 - 11:23:41] [/home/justin/public_html/myFramework/mvc/app/controllers/AutoModuleController.php on line:20 ] [IP: 127.0.0.1] Message: SHOW FIELDS FROM products
[05/09/2014 - 11:24:18] [/home/justin/public_html/myFramework/mvc/app/controllers/AutoModuleController.php on line:20 ] [IP: 127.0.0.1] Message: SHOW FIELDS FROM products
[05/09/2014 - 11:24:31] [/home/justin/public_html/myFramework/mvc/app/controllers/AutoModuleController.php on line:20 ] [IP: 127.0.0.1] Message: SHOW FIELDS FROM products
[05/09/2014 - 11:59:27] [/home/justin/public_html/myFramework/mvc/app/controllers/AutoModuleController.php on line:15 ] [IP: 127.0.0.1] Message: SHOW FIELDS FROM products
[05/09/2014 - 12:00:42] [/home/justin/public_html/myFramework/mvc/app/controllers/AutoModuleController.php on line:15 ] [IP: 127.0.0.1] Message: SHOW FIELDS FROM products
[05/09/2014 - 12:00:52] [/home/justin/public_html/myFramework/mvc/app/controllers/AutoModuleController.php on line:15 ] [IP: 127.0.0.1] Message: SHOW FIELDS FROM products
[05/09/2014 - 12:00:58] [/home/justin/public_html/myFramework/mvc/app/controllers/AutoModuleController.php on line:15 ] [IP: 127.0.0.1] Message: SHOW FIELDS FROM products
[05/09/2014 - 13:44:42] [/home/justin/public_html/myFramework/mvc/app/controllers/AutoModuleController.php on line:15 ] [IP: 127.0.0.1] Message: SHOW FIELDS FROM products
[05/09/2014 - 13:45:55] [/home/justin/public_html/myFramework/mvc/app/controllers/AutoModuleController.php on line:15 ] [IP: 127.0.0.1] Message: SHOW FIELDS FROM categories
[05/09/2014 - 13:46:08] [/home/justin/public_html/myFramework/mvc/app/controllers/AutoModuleController.php on line:15 ] [IP: 127.0.0.1] Message: SHOW FIELDS FROM posts
[05/09/2014 - 13:46:18] [/home/justin/public_html/myFramework/mvc/app/controllers/AutoModuleController.php on line:15 ] [IP: 127.0.0.1] Message: SHOW FIELDS FROM products
[05/09/2014 - 13:46:29] [/home/justin/public_html/myFramework/mvc/app/controllers/AutoModuleController.php on line:15 ] [IP: 127.0.0.1] Message: SHOW FIELDS FROM products
[05/09/2014 - 13:48:57] [/home/justin/public_html/myFramework/mvc/app/controllers/AutoModuleController.php on line:15 ] [IP: 127.0.0.1] Message: SHOW FIELDS FROM products
[05/09/2014 - 13:49:30] [/home/justin/public_html/myFramework/mvc/app/controllers/AutoModuleController.php on line:15 ] [IP: 127.0.0.1] Message: SHOW FIELDS FROM products
[05/09/2014 - 13:49:53] [/home/justin/public_html/myFramework/mvc/app/controllers/AutoModuleController.php on line:15 ] [IP: 127.0.0.1] Message: SHOW FIELDS FROM products
[05/09/2014 - 13:50:00] [/home/justin/public_html/myFramework/mvc/app/controllers/AutoModuleController.php on line:15 ] [IP: 127.0.0.1] Message: SHOW FIELDS FROM products
[05/09/2014 - 13:50:07] [/home/justin/public_html/myFramework/mvc/app/controllers/AutoModuleController.php on line:15 ] [IP: 127.0.0.1] Message: SHOW FIELDS FROM products
[05/09/2014 - 13:52:02] [/home/justin/public_html/myFramework/mvc/app/controllers/AutoModuleController.php on line:15 ] [IP: 127.0.0.1] Message: SHOW FIELDS FROM products
[05/09/2014 - 13:53:08] [/home/justin/public_html/myFramework/mvc/app/controllers/AutoModuleController.php on line:15 ] [IP: 127.0.0.1] Message: SHOW FIELDS FROM products
[05/09/2014 - 13:53:40] [/home/justin/public_html/myFramework/mvc/app/controllers/AutoModuleController.php on line:15 ] [IP: 127.0.0.1] Message: SHOW FIELDS FROM products
[05/09/2014 - 13:53:47] [/home/justin/public_html/myFramework/mvc/app/controllers/AutoModuleController.php on line:15 ] [IP: 127.0.0.1] Message: SHOW FIELDS FROM products
[05/09/2014 - 13:53:53] [/home/justin/public_html/myFramework/mvc/app/controllers/AutoModuleController.php on line:15 ] [IP: 127.0.0.1] Message: SHOW FIELDS FROM products
[05/09/2014 - 13:54:10] [/home/justin/public_html/myFramework/mvc/app/controllers/AutoModuleController.php on line:15 ] [IP: 127.0.0.1] Message: SHOW FIELDS FROM products
[05/09/2014 - 13:55:40] [/home/justin/public_html/myFramework/mvc/app/controllers/AutoModuleController.php on line:15 ] [IP: 127.0.0.1] Message: SHOW FIELDS FROM products
[05/09/2014 - 13:58:08] [/home/justin/public_html/myFramework/mvc/app/controllers/AutoModuleController.php on line:15 ] [IP: 127.0.0.1] Message: SHOW FIELDS FROM products
[05/09/2014 - 13:58:16] [/home/justin/public_html/myFramework/mvc/app/controllers/AutoModuleController.php on line:15 ] [IP: 127.0.0.1] Message: SHOW FIELDS FROM products
[05/09/2014 - 13:58:17] [/home/justin/public_html/myFramework/mvc/app/controllers/AutoModuleController.php on line:15 ] [IP: 127.0.0.1] Message: SHOW FIELDS FROM products
[05/09/2014 - 13:58:21] [/home/justin/public_html/myFramework/mvc/app/controllers/AutoModuleController.php on line:15 ] [IP: 127.0.0.1] Message: SHOW FIELDS FROM products
[05/09/2014 - 13:58:24] [/home/justin/public_html/myFramework/mvc/app/controllers/AutoModuleController.php on line:15 ] [IP: 127.0.0.1] Message: SHOW FIELDS FROM products
[05/09/2014 - 13:58:39] [/home/justin/public_html/myFramework/mvc/app/controllers/AutoModuleController.php on line:15 ] [IP: 127.0.0.1] Message: SHOW FIELDS FROM products
[05/09/2014 - 13:59:56] [/home/justin/public_html/myFramework/mvc/app/controllers/AutoModuleController.php on line:15 ] [IP: 127.0.0.1] Message: SHOW FIELDS FROM products
[05/09/2014 - 13:59:59] [/home/justin/public_html/myFramework/mvc/app/controllers/AutoModuleController.php on line:15 ] [IP: 127.0.0.1] Message: SHOW FIELDS FROM products
[05/09/2014 - 14:00:00] [/home/justin/public_html/myFramework/mvc/app/controllers/AutoModuleController.php on line:15 ] [IP: 127.0.0.1] Message: SHOW FIELDS FROM products
[05/09/2014 - 14:00:02] [/home/justin/public_html/myFramework/mvc/app/controllers/AutoModuleController.php on line:15 ] [IP: 127.0.0.1] Message: SHOW FIELDS FROM products
[05/09/2014 - 14:00:07] [/home/justin/public_html/myFramework/mvc/app/controllers/AutoModuleController.php on line:15 ] [IP: 127.0.0.1] Message: SHOW FIELDS FROM products
[05/09/2014 - 14:00:14] [/home/justin/public_html/myFramework/mvc/app/controllers/AutoModuleController.php on line:15 ] [IP: 127.0.0.1] Message: SHOW FIELDS FROM products
[05/09/2014 - 14:01:47] [/home/justin/public_html/myFramework/mvc/app/controllers/AutoModuleController.php on line:15 ] [IP: 127.0.0.1] Message: SHOW FIELDS FROM products
[05/09/2014 - 14:10:19] [/home/justin/public_html/myFramework/mvc/app/controllers/AutoModuleController.php on line:15 ] [IP: 127.0.0.1] Message: SHOW FIELDS FROM products
[05/09/2014 - 14:10:25] [/home/justin/public_html/myFramework/mvc/app/controllers/AutoModuleController.php on line:26 ] [IP: 127.0.0.1] Message: SHOW FIELDS FROM products
[05/09/2014 - 14:17:45] [/home/justin/public_html/myFramework/mvc/app/controllers/AutoModuleController.php on line:15 ] [IP: 127.0.0.1] Message: SHOW FIELDS FROM products
[05/09/2014 - 14:17:47] [/home/justin/public_html/myFramework/mvc/app/controllers/AutoModuleController.php on line:15 ] [IP: 127.0.0.1] Message: SHOW FIELDS FROM products
[05/09/2014 - 14:19:19] [/home/justin/public_html/myFramework/mvc/app/controllers/AutoModuleController.php on line:27 ] [IP: 127.0.0.1] Message: SHOW FIELDS FROM products
[05/09/2014 - 14:20:16] [/home/justin/public_html/myFramework/mvc/app/controllers/AutoModuleController.php on line:27 ] [IP: 127.0.0.1] Message: SHOW FIELDS FROM products
[05/09/2014 - 14:22:09] [/home/justin/public_html/myFramework/mvc/app/controllers/AutoModuleController.php on line:27 ] [IP: 127.0.0.1] Message: SHOW FIELDS FROM products
[05/09/2014 - 14:25:29] [/home/justin/public_html/myFramework/mvc/app/controllers/AutoModuleController.php on line:15 ] [IP: 127.0.0.1] Message: SHOW FIELDS FROM products
[05/09/2014 - 14:25:54] [/home/justin/public_html/myFramework/mvc/app/controllers/AutoModuleController.php on line:27 ] [IP: 127.0.0.1] Message: SHOW FIELDS FROM products
[05/09/2014 - 14:26:28] [/home/justin/public_html/myFramework/mvc/app/controllers/AutoModuleController.php on line:27 ] [IP: 127.0.0.1] Message: SHOW FIELDS FROM products
[05/09/2014 - 14:26:36] [/home/justin/public_html/myFramework/mvc/app/controllers/AutoModuleController.php on line:15 ] [IP: 127.0.0.1] Message: SHOW FIELDS FROM products
[05/09/2014 - 14:26:54] [/home/justin/public_html/myFramework/mvc/app/controllers/AutoModuleController.php on line:27 ] [IP: 127.0.0.1] Message: SHOW FIELDS FROM products
[05/09/2014 - 14:30:57] [/home/justin/public_html/myFramework/mvc/app/controllers/AutoModuleController.php on line:15 ] [IP: 127.0.0.1] Message: SHOW FIELDS FROM products
[05/09/2014 - 14:33:03] [/home/justin/public_html/myFramework/mvc/app/controllers/AutoModuleController.php on line:15 ] [IP: 127.0.0.1] Message: SHOW FIELDS FROM categories
[05/09/2014 - 14:33:13] [/home/justin/public_html/myFramework/mvc/app/controllers/AutoModuleController.php on line:15 ] [IP: 127.0.0.1] Message: SHOW FIELDS FROM products
[05/09/2014 - 14:33:40] [/home/justin/public_html/myFramework/mvc/app/controllers/AutoModuleController.php on line:27 ] [IP: 127.0.0.1] Message: SHOW FIELDS FROM products
[05/09/2014 - 14:33:51] [/home/justin/public_html/myFramework/mvc/app/controllers/AutoModuleController.php on line:15 ] [IP: 127.0.0.1] Message: SHOW FIELDS FROM products
[05/09/2014 - 14:34:32] [/home/justin/public_html/myFramework/mvc/app/controllers/AutoModuleController.php on line:27 ] [IP: 127.0.0.1] Message: SHOW FIELDS FROM products
[05/09/2014 - 14:42:29] [/home/justin/public_html/myFramework/mvc/app/controllers/AutoModuleController.php on line:15 ] [IP: 127.0.0.1] Message: SHOW FIELDS FROM products
[05/09/2014 - 14:42:46] [/home/justin/public_html/myFramework/mvc/app/controllers/AutoModuleController.php on line:15 ] [IP: 127.0.0.1] Message: SHOW FIELDS FROM products
[05/09/2014 - 14:42:47] [/home/justin/public_html/myFramework/mvc/app/controllers/AutoModuleController.php on line:15 ] [IP: 127.0.0.1] Message: SHOW FIELDS FROM products
[05/09/2014 - 14:43:14] [/home/justin/public_html/myFramework/mvc/app/controllers/AutoModuleController.php on line:31 ] [IP: 127.0.0.1] Message: SHOW FIELDS FROM products
[05/09/2014 - 14:46:33] [/home/justin/public_html/myFramework/mvc/app/controllers/AutoModuleController.php on line:31 ] [IP: 127.0.0.1] Message: SHOW FIELDS FROM products
[05/09/2014 - 14:58:50] [/home/justin/public_html/myFramework/mvc/app/controllers/AutoModuleController.php on line:15 ] [IP: 127.0.0.1] Message: SHOW FIELDS FROM products
[05/09/2014 - 15:07:17] [/home/justin/public_html/myFramework/mvc/app/controllers/AutoModuleController.php on line:15 ] [IP: 127.0.0.1] Message: SHOW FIELDS FROM products
[05/09/2014 - 15:07:42] [/home/justin/public_html/myFramework/mvc/app/controllers/AutoModuleController.php on line:31 ] [IP: 127.0.0.1] Message: SHOW FIELDS FROM products
[06/09/2014 - 9:38:40] [/home/justin/public_html/myFramework/mvc/libs/Model.php on line:18 ] [IP: 127.0.0.1] Message: SELECT * FROM users
[06/09/2014 - 9:38:52] [/home/justin/public_html/myFramework/mvc/libs/Model.php on line:18 ] [IP: 127.0.0.1] Message: SELECT * FROM users
[06/09/2014 - 9:44:09] [/home/justin/public_html/myFramework/mvc/libs/Model.php on line:18 ] [IP: 127.0.0.1] Message: SELECT * FROM users
[06/09/2014 - 9:44:37] [/home/justin/public_html/myFramework/mvc/libs/Model.php on line:18 ] [IP: 127.0.0.1] Message: SELECT * FROM users
